(declare-fun temp5544_1 () (_ BitVec 64))
(declare-fun temp5544_2 () (_ BitVec 64))
(declare-fun var82411 () (_ BitVec 64))
(declare-fun k!0 () Bool)
(declare-fun ARGNAME_input_NAMEEND_DIM () (_ BitVec 64))
(declare-fun temp5544_3 () (_ BitVec 64))
(declare-fun var82440 () (_ BitVec 64))
(declare-fun var82441 () (_ BitVec 64))
(declare-fun temp5544_4 () (_ BitVec 64))
(declare-fun ARGNAME_sections_NAMEEND () (_ BitVec 64))
(declare-fun var82444 () (_ BitVec 64))
(declare-fun temp5544_5 () (_ BitVec 64))
(declare-fun var82455 () (_ BitVec 64))
(declare-fun temp5544_6 () (_ BitVec 64))
(declare-fun temp5544_7 () (_ BitVec 64))
(declare-fun ARGNAME_input_NAMEEND_DIMSIZE
             ()
             (Array (_ BitVec 64) (_ BitVec 64)))
(declare-fun temp5544_8 () (_ BitVec 64))
(declare-fun temp5544_9 () (_ BitVec 64))
(declare-fun temp5544_10 () (_ BitVec 64))
(declare-fun temp5544_11 () (_ BitVec 64))
(declare-fun temp5544_12 () (_ BitVec 64))
(declare-fun temp5544_13 () (_ BitVec 64))
(declare-fun temp5544_14 () (_ BitVec 64))
(declare-fun temp5544_15 () (_ BitVec 64))
(declare-fun temp5544_16 () (_ BitVec 64))
(declare-fun temp5544_17 () (_ BitVec 64))
(declare-fun temp5544_18 () (_ BitVec 64))
(declare-fun temp5544_19 () (_ BitVec 64))
(declare-fun temp5544_20 () (_ BitVec 64))
(declare-fun temp5544_21 () (_ BitVec 64))
(declare-fun temp5544_22 () (_ BitVec 64))
(declare-fun temp5544_23 () (_ BitVec 64))
(declare-fun temp5544_25 () (_ BitVec 64))
(declare-fun temp5544_26 () (_ BitVec 64))
(declare-fun temp5544_24 () (_ BitVec 64))
(declare-fun var82459 () (_ BitVec 64))
(declare-fun temp5544_27 () (_ BitVec 64))
(declare-fun var82460 () (_ BitVec 64))
(declare-fun temp5544_28 () (_ BitVec 64))
(declare-fun var82496 () (_ BitVec 64))
(declare-fun var140605 () (_ BitVec 64))
(declare-fun temp5544_29 () (_ BitVec 64))
(declare-fun var140635 () (_ BitVec 64))
(declare-fun temp5544_30 () (_ BitVec 64))
(declare-fun temp5544_31 () (_ BitVec 64))
(declare-fun var140664 () (_ BitVec 64))
(declare-fun temp5544_32 () (_ BitVec 64))
(declare-fun temp5544_34 () (_ BitVec 64))
(declare-fun temp5544_33 () (_ BitVec 64))
(declare-fun temp5544_36 () (_ BitVec 64))
(declare-fun temp5544_35 () (_ BitVec 64))
(declare-fun var462146 () (_ BitVec 64))
(declare-fun temp5544_37 () (_ BitVec 64))
(declare-fun temp5544_38 () (_ BitVec 64))
(declare-fun var527687 () (_ BitVec 64))
(declare-fun var593234 () (_ BitVec 64))
(declare-fun temp5544_39 () (_ BitVec 64))
(declare-fun var1130139 () (_ BitVec 64))
(declare-fun temp5544_40 () (_ BitVec 64))
(declare-fun var1130188 () (_ BitVec 64))
(declare-fun temp5544_41 () (_ BitVec 64))
(declare-fun temp5544_42 () (_ BitVec 64))
(declare-fun var1380938 () (_ BitVec 64))
(declare-fun temp5544_43 () (_ BitVec 64))
(declare-fun var2101834 () (_ BitVec 64))
(declare-fun temp5544_44 () (_ BitVec 64))
(declare-fun var1130297 () (_ BitVec 64))
(declare-fun temp5544_45 () (_ BitVec 64))
(declare-fun var1130305 () (_ BitVec 64))
(declare-fun temp5544_46 () (_ BitVec 64))
(declare-fun temp5544_47 () (_ BitVec 64))
(declare-fun var1130340 () (_ BitVec 64))
(declare-fun temp5544_48 () (_ BitVec 64))
(declare-fun var1130348 () (_ BitVec 64))
(declare-fun temp5544_49 () (_ BitVec 64))
(declare-fun var1130358 () (_ BitVec 64))
(declare-fun temp5544_50 () (_ BitVec 64))
(declare-fun temp5544_51 () (_ BitVec 64))
(declare-fun var3357340 () (_ BitVec 64))
(declare-fun var3357344 () (_ BitVec 64))
(declare-fun temp5544_53 () (_ BitVec 64))
(declare-fun temp5544_52 () (_ BitVec 64))
(assert (= temp5544_1 #x0000000000000001))
(assert (= var82411
   (ite (bvslt ARGNAME_input_NAMEEND_DIM temp5544_1)
        #x0000000000000001
        #x0000000000000000)))
(assert (= temp5544_2 #x0000000000000000))
(assert (= var82411 temp5544_2))
(assert (= temp5544_3 #x0000000000000001))
(assert (= var82440
   (ite (distinct ARGNAME_input_NAMEEND_DIM temp5544_3)
        #x0000000000000001
        #x0000000000000000)))
(assert (= var82441 var82440))
(assert (= temp5544_4 #x0000000000000000))
(assert (= var82444
   (ite (= ARGNAME_sections_NAMEEND temp5544_4)
        #x0000000000000001
        #x0000000000000000)))
(assert (= temp5544_5 #x0000000000000000))
(assert (= var82444 temp5544_5))
(assert (= var82455 var82441))
(assert (= temp5544_6 #x0000000000000000))
(assert (= temp5544_7 temp5544_6))
(assert (= temp5544_8 (select ARGNAME_input_NAMEEND_DIMSIZE temp5544_7)))
(assert (= temp5544_9 #x0000000000000001))
(assert (= temp5544_10 temp5544_9))
(assert (= temp5544_11 (select ARGNAME_input_NAMEEND_DIMSIZE temp5544_10)))
(assert (= temp5544_12 #x0000000000000002))
(assert (= temp5544_13 temp5544_12))
(assert (= temp5544_14 (select ARGNAME_input_NAMEEND_DIMSIZE temp5544_13)))
(assert (= temp5544_15 #x0000000000000003))
(assert (= temp5544_16 temp5544_15))
(assert (= temp5544_17 (select ARGNAME_input_NAMEEND_DIMSIZE temp5544_16)))
(assert (= temp5544_18 #x0000000000000004))
(assert (= temp5544_19 temp5544_18))
(assert (= temp5544_20 (select ARGNAME_input_NAMEEND_DIMSIZE temp5544_19)))
(assert (= temp5544_21 #x0000000000000005))
(assert (= temp5544_22 temp5544_21))
(assert (= temp5544_23 (select ARGNAME_input_NAMEEND_DIMSIZE temp5544_22)))
(assert (= temp5544_25 var82455))
(assert (= temp5544_26 (select ARGNAME_input_NAMEEND_DIMSIZE temp5544_25)))
(assert (= temp5544_24 temp5544_26))
(assert (= var82459 (bvsmod temp5544_24 ARGNAME_sections_NAMEEND)))
(assert (= temp5544_27 #x0000000000000000))
(assert (= var82460
   (ite (= var82459 temp5544_27) #x0000000000000001 #x0000000000000000)))
(assert (= temp5544_28 #x0000000000000001))
(assert (= var82460 temp5544_28))
(assert (= var82496 var82441))
(assert (= var140605 var82496))
(assert (= temp5544_29 #x0000000000000001))
(assert (= var140635
   (ite (bvslt ARGNAME_input_NAMEEND_DIM temp5544_29)
        #x0000000000000001
        #x0000000000000000)))
(assert (= temp5544_30 #x0000000000000000))
(assert (= var140635 temp5544_30))
(assert (= temp5544_31 #x0000000000000001))
(assert (= var140664
   (ite (bvslt ARGNAME_sections_NAMEEND temp5544_31)
        #x0000000000000001
        #x0000000000000000)))
(assert (= temp5544_32 #x0000000000000000))
(assert (= var140664 temp5544_32))
(assert (= temp5544_34 #x0000000000000000))
(assert (= temp5544_33 temp5544_34))
(assert (= temp5544_36 #x0000000000000000))
(assert (= temp5544_35 temp5544_36))
(assert (= var462146
   (ite (bvslt temp5544_35 ARGNAME_sections_NAMEEND)
        #x0000000000000001
        #x0000000000000000)))
(assert (= temp5544_37
   (ite (= var462146 #x0000000000000001) ARGNAME_sections_NAMEEND temp5544_35)))
(assert (= temp5544_38 #x0000000000000000))
(assert (= var527687 temp5544_38))
(assert (= var593234 var527687))
(assert (= temp5544_39 #x0000000000000001))
(assert (= var1130139 temp5544_39))
(assert (= temp5544_40 #x0000000000000000))
(assert (= var1130188
   (ite (= ARGNAME_input_NAMEEND_DIM temp5544_40)
        #x0000000000000001
        #x0000000000000000)))
(assert (= temp5544_41 #x0000000000000000))
(assert (= var1130188 temp5544_41))
(assert (= temp5544_42 #x0000000000000005))
(assert (= var1380938 temp5544_42))
(assert (= temp5544_43 #x0000000000000005))
(assert (= var2101834 temp5544_43))
(assert (= temp5544_44 #x0000000000000000))
(assert (= var1130297 temp5544_44))
(assert (= temp5544_45 #x0000000000000001))
(assert (= var1130305
   (ite (bvslt var1130139 temp5544_45) #x0000000000000001 #x0000000000000000)))
(assert (= temp5544_46 #x0000000000000000))
(assert (= var1130305 temp5544_46))
(assert (= temp5544_47 #x0000000000000000))
(assert (= var1130340
   (ite (bvslt var1130297 temp5544_47) #x0000000000000001 #x0000000000000000)))
(assert (= temp5544_48 #x0000000000000000))
(assert (= var1130340 temp5544_48))
(assert (= var1130348 var1130297))
(assert (= temp5544_49 #x0000000000000000))
(assert (= var1130358
   (ite (bvslt var1130348 temp5544_49) #x0000000000000001 #x0000000000000000)))
(assert (= temp5544_50 #x0000000000000000))
(assert (= var1130358 temp5544_50))
(assert (= temp5544_51 #x0000000000000000))
(assert (= var3357340 temp5544_51))
(assert (= var3357344 var1130139))
(assert (= temp5544_53 #x0000000000000000))
(assert (= temp5544_52 temp5544_53))
(model-add temp5544_1 () (_ BitVec 64) #x0000000000000001)
(model-add temp5544_2 () (_ BitVec 64) #x0000000000000000)
(model-add var82411 () (_ BitVec 64) #x0000000000000000)
(model-del k!0)
(model-add ARGNAME_input_NAMEEND_DIM
           ()
           (_ BitVec 64)
           (ite (or k!0 (= #x0000000000000001 #x8000000000000000))
                #x0000000000000001
                (bvsub #x0000000000000001 #x0000000000000001)))



